container_size = [30, 45, 15];
Box = B(1..7);
no_boxes = [24, 10, 11, 14, 6, 20, 15];
box_size =
[|       Length: Width: Height: 
 | B(1):      4,     3,      3
 | B(2):      4,     4,      1
 | B(3):      3,     1,      2
 | B(4):      9,     2,      3
 | B(5):      8,     1,      3
 | B(6):     15,     1,      2
 | B(7):      9,     2,      2
 |];
